c FILE: g40-20-1.graph
c
c DESCRIPTION: This is a random graph with 40 vertices.
c   Each of pair of vertices are made adjacent with probability p = 0.2.
c   Edge weights are an integer generated uniformly at random in the interval [1, 20].
c   The random seed used for its generation was 1.
c
c 08/04/2025
c
p edge 40 160
e 0 10 10
e 0 11 11
e 0 15 14
e 0 18 10
e 0 24 8
e 0 32 17
e 0 33 6
e 0 37 2
e 1 5 8
e 1 18 17
e 1 23 12
e 1 25 17
e 1 29 18
e 1 33 8
e 1 36 3
e 1 37 18
e 2 6 1
e 2 11 20
e 2 12 10
e 2 13 6
e 2 21 10
e 2 24 4
e 2 33 6
e 3 6 17
e 3 12 10
e 3 13 7
e 3 22 2
e 3 31 7
e 3 36 4
e 4 5 20
e 4 8 7
e 4 12 14
e 4 24 6
e 4 25 18
e 4 36 16
e 4 37 18
e 5 9 5
e 5 17 9
e 5 21 9
e 5 22 2
e 5 24 1
e 5 25 4
e 5 28 19
e 5 30 6
e 5 32 4
e 6 10 10
e 6 15 11
e 6 18 7
e 6 25 6
e 6 29 9
e 6 30 15
e 6 31 19
e 7 14 8
e 7 16 9
e 7 18 3
e 7 19 1
e 7 24 17
e 7 29 5
e 7 33 17
e 7 36 7
e 7 37 2
e 8 17 8
e 8 19 15
e 8 28 14
e 8 30 12
e 8 33 9
e 8 36 20
e 8 37 16
e 8 38 17
e 9 17 8
e 9 35 15
e 10 12 9
e 10 25 9
e 10 30 20
e 10 33 3
e 11 12 11
e 11 27 20
e 11 30 5
e 12 13 16
e 12 15 7
e 12 19 1
e 12 20 1
e 12 25 17
e 12 32 15
e 12 38 13
e 13 19 17
e 13 20 15
e 13 29 17
e 13 30 13
e 13 38 8
e 14 26 12
e 14 34 17
e 14 35 17
e 14 36 19
e 15 16 17
e 15 18 3
e 15 26 17
e 15 30 10
e 15 38 9
e 16 22 20
e 16 28 6
e 16 33 9
e 16 35 5
e 17 18 7
e 17 21 13
e 17 25 20
e 17 26 7
e 17 29 17
e 17 35 6
e 17 36 13
e 18 27 7
e 18 29 1
e 18 35 13
e 18 36 5
e 18 38 13
e 18 39 18
e 19 20 13
e 19 22 10
e 19 24 2
e 19 26 5
e 19 27 9
e 19 30 16
e 20 22 19
e 20 23 14
e 20 27 12
e 20 33 9
e 20 38 4
e 20 39 7
e 21 24 3
e 21 27 17
e 21 30 18
e 21 31 5
e 22 25 9
e 22 27 5
e 22 30 10
e 22 31 8
e 22 39 15
e 23 29 10
e 23 31 13
e 23 33 12
e 23 34 3
e 23 35 18
e 24 28 11
e 24 30 19
e 24 31 9
e 25 26 17
e 26 27 9
e 26 31 14
e 26 39 19
e 27 29 3
e 28 31 8
e 29 34 17
e 29 36 20
e 30 31 15
e 30 32 10
e 32 36 15
e 32 37 19
e 32 38 6
e 33 34 14
e 35 39 12